NAME : bier127.tsp
TYPE : TOUR
DIMENSION : 127
TOUR_LENGTH : 120543.56255079679
TOUR_SECTION
1
105
114
6
106
15
108
20
17
21
22
4
24
23
19
72
8
9
11
3
90
116
60
59
62
61
91
58
64
100
10
120
7
13
115
50
5
121
56
52
124
55
66
113
65
99
92
89
125
104
110
85
86
87
88
109
96
119
63
102
101
83
82
126
81
84
117
78
76
75
69
70
71
68
67
73
74
18
77
79
80
31
27
30
12
14
41
36
37
16
2
51
57
54
44
103
45
47
49
53
48
118
46
94
112
111
107
127
93
95
123
98
97
28
122
32
29
33
25
26
38
39
42
34
43
40
35
-1
